09-routing/solutions/XSH-n20-k4-22.opt.sol
Route #1: 4 20 15 7 6 8
Route #2: 13 2 14 19 10
Route #3: 17 1 18 12 11
Route #4: 9 5 3 16
Cost 760
